%NProcShared=8
%Mem=8GB
%chk=fluo
#p B3LYP/Gen 6D Opt=VeryTight Freq=Anharm Int=UltraFine

fluorene C13H10  anharmonic (GVPT2)  B3LYP/N07D

0 1
H      -0.8767230000    0.0000000000    2.4795900000
C       0.0000000000    3.0064160000   -1.2062020000
C       0.0000000000    3.4492850000    0.1150450000
C       0.0000000000    2.5360510000    1.1678580000
C       0.0000000000    1.1808240000    0.8826990000
C       0.0000000000    0.7329270000   -0.4490520000
C       0.0000000000    1.6468960000   -1.4984090000
H       0.0000000000    3.7283790000   -2.0120470000
H       0.0000000000    4.5106480000    0.3245650000
H       0.0000000000    2.8875260000    2.1921490000
H       0.0000000000    1.3113950000   -2.5273340000
C      -0.0000000000    0.0000000000    1.8254890000
H       0.8767230000    0.0000000000    2.4795900000
C      -0.0000000000   -1.1808240000    0.8826990000
C      -0.0000000000   -2.5360510000    1.1678580000
C      -0.0000000000   -3.4492850000    0.1150450000
C      -0.0000000000   -3.0064160000   -1.2062020000
C      -0.0000000000   -1.6468960000   -1.4984090000
C      -0.0000000000   -0.7329270000   -0.4490520000
H      -0.0000000000   -2.8875260000    2.1921490000
H      -0.0000000000   -4.5106480000    0.3245650000
H      -0.0000000000   -3.7283790000   -2.0120470000
H      -0.0000000000   -1.3113950000   -2.5273340000

C     0
6-31G
S   1 1.00
      0.7500000000D+01  0.1000000000D+01
P   1 1.00
      0.5000000000D-01  0.1000000000D+01
D   1 1.00
      0.8200000000D+00  0.1000000000D+01
****
H     0
6-31G
P   1 1.00
      0.7500000000D+00  0.10000000D+01
****

