## xyz coordinates are form gaussview

%NProcShared = 4
%Mem = 40GB
%chk = c60h2_b3lyp_6-31g_freq
#T B3LYP/6-31g opt freq(hpmodes, Raman)

c2v 1c2c isomer, addition across a hexagonal bond

0 1
 C                  2.20980425   -2.68687088    0.71450972
 C                  2.96295042   -1.48441863    1.17782823
 C                  2.54744243   -0.80495139    2.27994177
 C                  1.38273529   -1.19384317    3.22864467
 C                  0.68987536   -2.23375602    2.67439039
 C                  1.13273023   -3.03450647    1.39727674
 C                  2.24111663   -2.73165930   -0.82795039
 C                  3.04220612   -1.52440110   -1.30977533
 C                  3.49189096   -0.76054605   -0.06357066
 C                  3.49189096    0.76054605   -0.06357066
 C                  2.54744243    0.80495139    2.27994177
 C                  0.86865914    0.00000000    4.26402891
 C                 -0.86865914    0.00000000    4.26402891
 C                 -1.38273529   -1.19384317    3.22864467
 C                 -0.68987536   -2.23375602    2.67439039
 C                 -1.13273023   -3.03450647    1.39727674
 C                  0.00000000   -3.48461990    0.62944348
 C                  0.00000000   -3.54076234   -0.72967989
 C                  1.15482409   -3.13010321   -1.50734460
 C                  2.66602099   -0.84495277   -2.42107858
 C                  1.41596906   -1.29068060   -3.20125172
 C                  0.70638854   -2.36749166   -2.77395011
 C                 -0.70638854   -2.36749166   -2.77395011
 C                 -1.15482409   -3.13010321   -1.50734460
 C                 -2.24111663   -2.73165930   -0.82795039
 C                 -2.20980425   -2.68687088    0.71450972
 C                 -2.96295042   -1.48441863    1.17782823
 C                 -2.54744243   -0.80495139    2.27994177
 C                  1.38273529    1.19384317    3.22864467
 C                 -2.20980425    2.68687088    0.71450972
 C                 -1.13273023    3.03450647    1.39727674
 C                  0.00000000    3.48461990    0.62944348
 C                  0.00000000    3.54076234   -0.72967989
 C                 -1.15482409    3.13010321   -1.50734460
 C                 -3.04220612    1.52440110   -1.30977533
 C                 -3.49189096    0.76054605   -0.06357066
 C                 -2.96295042    1.48441863    1.17782823
 C                 -2.54744243    0.80495139    2.27994177
 C                 -1.38273529    1.19384317    3.22864467
 C                 -0.68987536    2.23375602    2.67439039
 C                  1.13273023    3.03450647    1.39727674
 C                  2.20980425    2.68687088    0.71450972
 C                  2.24111663    2.73165930   -0.82795039
 C                  1.15482409    3.13010321   -1.50734460
 C                  0.70638854    2.36749166   -2.77395011
 C                 -0.70638854    2.36749166   -2.77395011
 C                 -1.41596906    1.29068060   -3.20125172
 C                 -2.66602099    0.84495277   -2.42107858
 C                 -3.49189096   -0.76054605   -0.06357066
 C                 -3.04220612   -1.52440110   -1.30977533
 C                 -2.66602099   -0.84495277   -2.42107858
 C                 -1.41596906   -1.29068060   -3.20125172
 C                 -0.67933682    0.00000000   -3.68521082
 C                  0.67933682    0.00000000   -3.68521082
 C                  1.41596906    1.29068060   -3.20125172
 C                  2.66602099    0.84495277   -2.42107858
 C                  3.04220612    1.52440110   -1.30977533
 C                  0.68987536    2.23375602    2.67439039
 C                  2.96295042    1.48441863    1.17782823
 C                 -2.24111663    2.73165930   -0.82795039
 H                 -1.23845472    0.00000000    5.26725832
 H                  1.23845472    0.00000000    5.26725832

