%NProcShared = 4
%Mem = 40GB
%chk = c60h2_b3lyp_6-31g_freq
#T B3LYP/6-31g opt freq(hpmodes, Raman)

c2v 1c2c isomer, addition across a hexagonal bond

0 1
C          0.11258        0.97572        3.21577
C         -0.98808        0.16512        3.24621
C         -0.55138       -1.13506        3.21380
C          0.81650       -1.11653        3.16943
C          1.22625        0.18666        3.18418
C          2.36325        0.58930        2.43109
C          3.05031       -0.32828        1.68839
C          2.62169       -1.68433        1.66419
C          1.52851       -2.07157        2.39002
C          0.84624       -3.00471        1.66110
C         -0.57320       -3.03050        1.69552
C         -1.27130       -2.13923        2.50639
C         -2.50152       -1.77227        1.76364
C         -2.95412       -0.43139        1.80241
C         -2.17941        0.56576        2.57823
C         -2.17461        1.73413        1.81858
C         -2.88024        1.50519        0.65785
C         -3.33385        0.20202        0.62160
C         -3.32410       -0.50509       -0.60593
C         -2.88318       -1.79929       -0.64575
C         -2.43838       -2.43896        0.54351
C         -1.28810       -3.20415        0.52597
C         -0.58847       -3.38983       -0.69834
C          0.77923       -3.38297       -0.72146
C          1.51054       -3.18425        0.48041
C          2.61112       -2.37288        0.48371
C          3.02868       -1.73197       -0.71632
C          3.44457       -0.42977       -0.68974
C          3.45509        0.28462        0.53493
C          3.01906        1.57922        0.56481
C          2.57325        2.22330       -0.62200
C          2.56882        1.53997       -1.80252
C          3.00075        0.18459       -1.82755
C          2.30319       -0.73639       -2.55239
C          2.32496       -1.92285       -1.87153
C          1.17994       -2.76633       -1.87401
C          0.06037       -2.39301       -2.56154
C         -1.03253       -2.78644       -1.84208
C         -2.19524       -1.96972       -1.81315
C         -2.21300       -0.78268       -2.49224
C         -2.91021        0.12190       -1.74754
C         -2.49947        1.48278       -1.72575
C         -2.47752        2.15733       -0.54037
C         -1.40391        3.03942       -0.54801
C         -0.76438        3.03169       -1.86671
C         -1.43514        1.91536       -2.50627
C         -0.66606        0.94668       -3.19833
C         -1.06924       -0.36238       -3.22222
C          0.03917       -1.15575       -3.26155
C          1.13232       -0.34012       -3.25233
C          0.70330        0.96077       -3.21811
C          1.47189        1.94714       -2.55071
C          0.79624        3.05009       -1.89211
C          1.47762        3.07705       -0.59461
C          0.73500        3.18731        0.60254
C         -0.62902        3.17232        0.62415
C         -1.02364        2.56060        1.78461
C          0.09016        2.19381        2.47936
C          1.17576        2.57736        1.74774
C          2.34008        1.76460        1.73260
H         -1.19466        4.00084       -2.27687
H          1.19466        4.00084       -2.27687

