## xyz coordinates are form gaussview

%NProcShared = 4
%Mem = 40GB
%chk = c60h2_5r6r_b3lyp_6-31g_freq
#T B3LYP/6-31g opt freq(hpmodes, Raman)

cs 5r6r isomer, addition across a hexagonal bond

0 1
 C                  2.97000912   -1.78751339    0.00000000
 C                  2.08344996   -2.84680106    0.00000000
 C                  3.17052691   -0.90655457    1.20950745
 C                  1.28023469   -3.25310423   -1.20536757
 C                  1.28023469   -3.25310423    1.20536757
 C                  3.17052691   -0.90655457   -1.20950745
 C                  2.43753777   -1.14338725    2.25852465
 C                  3.47656293    0.52812978    0.75790817
 C                 -0.00544725   -4.20533628   -0.88927732
 C                  1.42975993   -2.32005900   -2.23165613
 C                 -0.00544725   -4.20533628    0.88927732
 C                  1.42975993   -2.32005900    2.23165613
 C                  2.43753777   -1.14338725   -2.25852465
 C                  3.47656293    0.52812978   -0.75790817
 C                  1.86434727    0.02999333    3.05129000
 C                  2.97173081    1.57293946    1.44059235
 C                 -1.04406059   -3.29202471   -1.38479725
 C                  0.24660489   -1.82678638   -2.99179628
 C                 -1.04406059   -3.29202471    1.38479725
 C                  0.24660489   -1.82678638    2.99179628
 C                  1.86434727    0.02999333   -3.05129000
 C                  2.97173081    1.57293946   -1.44059235
 C                  2.10758484    1.30733706    2.67209893
 C                  0.49178694   -0.39134754    3.50921975
 C                  2.37498189    2.77179257    0.67835598
 C                 -2.23268111   -2.64044371   -0.64129534
 C                 -0.92312218   -2.22671069   -2.56989497
 C                  0.49178694   -0.39134754   -3.50921975
 C                 -2.23268111   -2.64044371    0.64129534
 C                 -0.92312218   -2.22671069    2.56989497
 C                  2.10758484    1.30733706   -2.67209893
 C                  2.37498189    2.77179257   -0.67835598
 C                  0.96999142    2.33967423    2.69260542
 C                 -0.50044170    0.50198497    3.53896331
 C                  1.12815811    3.24700433    1.45266263
 C                 -2.86339355   -1.43696874   -1.38681131
 C                 -2.04337226   -1.18468613   -2.58833295
 C                 -0.50044170    0.50198497   -3.53896331
 C                 -2.86339355   -1.43696874    1.38681131
 C                 -2.04337226   -1.18468613    2.58833295
 C                  0.96999142    2.33967423   -2.69260542
 C                  1.12815811    3.24700433   -1.45266263
 C                 -0.25916427    1.96117300    3.10399018
 C                 -1.86524542    0.07786194    3.04783303
 C                  0.02594785    3.66579147    0.77347565
 C                 -3.43769305   -0.40999739   -0.74724752
 C                 -1.86524542    0.07786194   -3.04783303
 C                 -0.25916427    1.96117300   -3.10399018
 C                 -3.43769305   -0.40999739    0.74724752
 C                  0.02594785    3.66579147   -0.77347565
 C                 -1.50678284    2.43447333    2.34108066
 C                 -2.50467496    1.26393588    2.31921674
 C                 -1.37865320    3.23414440    1.24920532
 C                 -3.24993116    1.03333433   -1.23418785
 C                 -2.50467496    1.26393588   -2.31921674
 C                 -1.50678284    2.43447333   -2.34108066
 C                 -3.24993116    1.03333433    1.23418785
 C                 -1.37865320    3.23414440   -1.24920532
 C                 -2.24377846    2.96779790    0.00000000
 C                 -3.12284048    1.93410454    0.00000000
 H                 -0.02707663   -5.19574477   -1.29346977
 H                 -0.02707663   -5.19574477    1.29346977
