## xyz coordinates are form gaussview

%NProcShared = 4
%Mem = 40GB
%chk = c60h2_1a2c_b3lyp_6-31g_freq
#T B3LYP/6-31g opt freq(hpmodes, Raman)

cs 1a2c isomer, addition across a hexagonal bond

0 1
 C                 -3.43547996    0.56630334    0.00000000
 C                 -3.32770392   -0.30728301    1.22453325
 C                 -2.70320004    0.17696411    2.28561964
 C                 -2.12334095    1.60341910    2.26083702
 C                 -2.21641744    2.38444045    1.20298327
 C                 -2.89673004    1.80604558    0.00000000
 C                 -3.32770392   -0.30728301   -1.22453325
 C                 -3.11276588   -1.75569333   -0.76595890
 C                 -3.11276588   -1.75569333    0.76595890
 C                 -2.26202629   -2.54772502    1.44851698
 C                 -1.75619569   -0.69951709    3.06549588
 C                 -0.86091026    1.66541436    3.02503370
 C                  0.09829805    2.59334132    2.67351918
 C                 -0.05205266    3.91223815    1.67507468
 C                 -1.12970800    3.46869553    0.81889734
 C                 -1.12970800    3.46869553   -0.81889734
 C                 -2.21641744    2.38444045   -1.20298327
 C                 -2.12334095    1.60341910   -2.26083702
 C                 -2.70320004    0.17696411   -2.28561964
 C                 -2.26202629   -2.54772502   -1.44851698
 C                 -1.53761363   -1.98436030   -2.68292798
 C                 -1.75619569   -0.69951709   -3.06549588
 C                 -0.60752445    0.20111259   -3.51474286
 C                 -0.86091026    1.66541436   -3.02503370
 C                  0.09829805    2.59334132   -2.67351918
 C                 -0.05205266    3.91223815   -1.67507468
 C                  1.17549927    3.46268482   -0.71455222
 C                  1.17549927    3.46268482    0.71455222
 C                 -0.60752445    0.20111259    3.51474286
 C                  3.30658093    0.18276644    1.21767725
 C                  2.71596825   -0.28975807    2.29414727
 C                  2.21825475   -1.74091926    2.32823594
 C                  2.38669980   -2.53843877    1.24545988
 C                  3.08857820   -1.97987526    0.00000000
 C                  3.30658093    0.18276644   -1.21767725
 C                  2.96376771    1.59631335   -0.73893003
 C                  2.96376771    1.59631335    0.73893003
 C                  2.11398198    2.39907768    1.38544912
 C                  1.45167321    1.87859609    2.60079059
 C                  1.71882082    0.60158972    3.02472931
 C                  0.89992763   -1.74241505    3.09574979
 C                 -0.11235957   -2.54102293    2.69481133
 C                  0.05952846   -3.45107826    1.45502118
 C                  1.23542191   -3.44920125    0.77392116
 C                  1.23542191   -3.44920125   -0.77392116
 C                  2.38669980   -2.53843877   -1.24545988
 C                  2.21825475   -1.74091926   -2.32823594
 C                  2.71596825   -0.28975807   -2.29414727
 C                  2.11398198    2.39907768   -1.38544912
 C                  1.45167321    1.87859609   -2.60079059
 C                  1.71882082    0.60158972   -3.02472931
 C                  0.61360747   -0.28660074   -3.52553459
 C                  0.89992763   -1.74241505   -3.09574979
 C                 -0.11235957   -2.54102293   -2.69481133
 C                  0.05952846   -3.45107826   -1.45502118
 C                 -1.27653469   -3.45400713   -0.68163171
 C                 -1.27653469   -3.45400713    0.68163171
 C                  0.61360747   -0.28660074    3.52553459
 C                 -1.53761363   -1.98436030    2.68292798
 C                  3.51591309   -0.70029806    0.00000000
 H                 -0.09489613    4.89165937    2.10365488
 H                 -0.09489613    4.89165937   -2.10365488
