## xyz coordinates are form gaussview

%NProcShared = 4
%Mem = 40GB
%chk = c60h2_1a2d_b3lyp_6-31g_freq
#T B3LYP/6-31g opt freq(hpmodes, Raman)

cs 1a2d isomer, addition across a hexagonal bond

0 1
 C                 -1.47081098   -2.01712322    2.74527125
 C                 -0.15070341   -2.89631326    3.12278457
 C                  0.82854145   -1.81598147    3.15365046
 C                  0.58683600   -0.26820824    3.45806928
 C                 -0.58683600    0.26820824    3.45806928
 C                 -1.68008080   -0.66313408    2.99512757
 C                 -2.16507009   -2.42465635    1.42022464
 C                 -1.22073911   -3.30206678    0.68205264
 C                  0.04347548   -3.42713553    1.57072122
 C                  1.17315713   -3.31874900    0.77871362
 C                  2.11077252   -1.67322590    2.26913103
 C                  1.68008080    0.66313408    2.99512757
 C                  1.47081098    2.01712322    2.74527125
 C                  0.15070341    2.89631326    3.12278457
 C                 -0.82854145    1.81598147    3.15365046
 C                 -2.11077252    1.67322590    2.26913103
 C                 -2.63031260    0.23177167    2.22492515
 C                 -3.27793510   -0.23086606    1.16850473
 C                 -3.01877696   -1.64149582    0.72307979
 C                 -1.23591386   -3.29327680   -0.68729016
 C                 -2.22956928   -2.42970907   -1.47380677
 C                 -3.07330273   -1.65374521   -0.80571202
 C                 -3.37342473   -0.23510880   -1.28938655
 C                 -3.50355930    0.64315336   -0.04905579
 C                 -3.03367156    1.88568166   -0.04150116
 C                 -2.29690433    2.42020292    1.19418889
 C                 -1.17315713    3.31874900    0.77871362
 C                 -0.04347548    3.42713553    1.57072122
 C                  2.63031260   -0.23177167    2.22492515
 C                  2.22956928    2.42970907   -1.47380677
 C                  3.07330273    1.65374521   -0.80571202
 C                  3.37342473    0.23510880   -1.28938655
 C                  2.77546598   -0.24355783   -2.39679340
 C                  1.79331013    0.64579032   -3.17745790
 C                  0.11214188    2.45419321   -2.74030753
 C                 -0.05669336    3.31193088   -1.46686380
 C                  1.23591386    3.29327680   -0.68729016
 C                  1.22073911    3.30206678    0.68205264
 C                  2.16507009    2.42465635    1.42022464
 C                  3.01877696    1.64149582    0.72307979
 C                  3.50355930   -0.64315336   -0.04905579
 C                  3.03367156   -1.88568166   -0.04150116
 C                  2.35120937   -2.43893350   -1.27606351
 C                  2.22638939   -1.67711259   -2.39195972
 C                  0.90772523   -1.68281266   -3.17421142
 C                  0.63379169   -0.24304706   -3.66491447
 C                 -0.63379169    0.24304706   -3.66491447
 C                 -0.90772523    1.68281266   -3.17421142
 C                 -1.19326114    3.30943908   -0.78474191
 C                 -2.35120937    2.43893350   -1.27606351
 C                 -2.22638939    1.67711259   -2.39195972
 C                 -2.77546598    0.24355783   -2.39679340
 C                 -1.79331013   -0.64579032   -3.17745790
 C                 -1.54073764   -1.90579744   -2.74202150
 C                 -0.11214188   -2.45419321   -2.74030753
 C                  0.05669336   -3.31193088   -1.46686380
 C                  1.19326114   -3.30943908   -0.78474191
 C                  3.27793510    0.23086606    1.16850473
 C                  2.29690433   -2.42020292    1.19418889
 C                  1.54073764    1.90579744   -2.74202150
 H                  0.16481889    3.59405707    3.93385671
 H                 -0.16481889   -3.59405707    3.93385671
