%NProcShared = 4
%Mem = 40GB
%chk = c60h2_b3lyp_6-31g_freq
#T B3LYP/6-31g opt freq(hpmodes, Raman)

c2v 1c2c isomer, addition across a hexagonal bond

0 1
C          0.02840        1.28888        3.62407
C         -1.13339        0.35039        3.32325
C         -0.67639       -0.96594        3.23935
C          0.71620       -0.97016        3.23338
C          1.18187        0.34338        3.31333
C          2.27225        0.70784        2.51438
C          2.95910       -0.24885        1.76587
C          2.53218       -1.57942        1.76071
C          1.40354       -1.93629        2.48827
C          0.70656       -2.89626        1.76006
C         -0.69103       -2.89203        1.76605
C         -1.37592       -1.92787        2.50017
C         -2.50857       -1.56416        1.78229
C         -2.92736       -0.23103        1.79108
C         -2.22835        0.72146        2.53365
C         -2.92657        1.68307        0.62122
C         -3.36507        0.36363        0.61292
C         -3.38066       -0.36665       -0.58196
C         -2.95633       -1.69359       -0.59127
C         -2.52026       -2.29506        0.59536
C         -1.39525       -3.11717        0.58564
C         -0.70071       -3.34244       -0.60938
C          0.69316       -3.34666       -0.61535
C          1.39927       -3.12563        0.57367
C          2.52928       -2.31035        0.57374
C          2.95881       -1.71150       -0.61660
C          3.39122       -0.38715       -0.61096
C          3.39029        0.34318        0.58399
C          2.95988        1.66525        0.59601
C          2.53377        2.26777       -0.59062
C          2.53086        1.54482       -1.78246
C          2.95960        0.21211       -1.79227
C          2.25679       -0.74112       -2.52695
C          2.25630       -1.93014       -1.80025
C          1.12059       -2.74960       -1.79956
C         -0.00903       -2.37626       -2.52527
C         -1.13463       -2.74277       -1.78990
C         -2.26532       -1.91645       -1.78088
C         -2.26483       -0.72743       -2.50759
C         -2.95554        0.23002       -1.76693
C         -2.51867        1.56010       -1.76084
C         -2.50699        2.28303       -0.56903
C         -1.37386        3.08710       -0.56488
C         -0.68866        2.87312       -1.75749
C         -1.39318        1.92573       -2.49648
C         -0.69894        0.96457       -3.24174
C         -1.13365       -0.35925       -3.24666
C         -0.00854       -1.18152       -3.25547
C          1.12156       -0.36608       -3.25631
C          0.69493        0.96035       -3.24771
C          1.40134        1.91727       -2.50845
C          0.70892        2.86888       -1.76348
C          1.40560        3.07869       -0.57678
C          0.71795        3.30156        0.62260
C         -0.67463        3.30577        0.62856
C         -1.13239        2.78034        1.83810
C          0.02895        2.61932        2.81093
C          1.18286        2.77333        1.82819
C          2.27274        1.89545        1.78854
C         -2.22786        1.90907        1.80781
H          0.03368        1.52057        4.69187
H          0.03447        3.46392        3.50414

