%Chk=ch4.chk
#P B3LYP 6-311+G(2d,2p) Opt Freq

CH4 calculation

0 1
C         -1.13410        0.72042        0.00000
H         -0.04190        0.72042       -0.00000
H         -1.49816        1.33799        0.82399
H         -1.49816       -0.30197        0.12284
H         -1.49816        1.12523       -0.94683

